2135575162229239878505,7,1,2,07,3,1,2,014,2,1,2,04,10,1,2,011,8,1,2,05,14,1,2,07,8,1,2,08,3,1,2,015,4,1,2,013,12,1,2,09,4,1,2,02,5,1,2,02,1,1,2,09,6,1,2,07,9,1,2,04,8,1,2,03,1,1,2,014,7,1,2,06,14,1,2,011,2,1,2,014,12,1,2,05,2,1,2,06,12,1,2,03,11,1,2,04,10,1,2,07,7,1,2,09,1,1,2,011,6,1,2,01,14,1,2,010,10,1,2,013,8,1,2,04,13,1,2,04,10,1,2,015,12,1,2,013,11,1,2,012,8,1,2,012,7,1,2,09,12,1,2,02,8,1,2,011,10,1,2,01,6,1,2,011,13,1,2,06,8,1,2,07,11,1,2,03,15,1,2,02,11,1,2,014,14,1,2,05,5,1,2,015,8,1,2,03,1,1,2,0